Results/Experiment 1 Results/New Benchmark/RES_40/output_p1_0.25_p2_0.00_n_40_01.txt
solutions: 0 nodes: 0  modelTime: 109  solveTime: 10  totalTime: 123  modelSize: 7857  readTime: 4 matchingSize: 0
