Results/Experiment 2 Results/New Benchmark/output_p1_0.25_p2_0.00_n_40_01.lp
clingo version 5.4.0
Reading from tempSRTISolver.lp ...
Solving...
Answer: 1
matched(4,6) matched(1,7) matched(5,8) matched(9,10) matched(12,11) matched(11,12) matched(10,9) matched(14,15) matched(17,16) matched(19,18) matched(18,19) matched(22,23) matched(28,25) matched(24,26) matched(21,27) matched(27,21) matched(29,32) matched(32,29) matched(35,34) matched(34,35) matched(38,36) matched(36,38) matched(2,3) matched(6,4) matched(13,20) matched(23,22) matched(25,28) matched(31,30) matched(40,37) matched(37,40) matched(3,2) matched(8,5) matched(39,33) matched(15,14) matched(16,17) matched(20,13) matched(30,31) matched(33,39) matched(7,1) matched(26,24)
Optimization: 412
Answer: 2
matched(8,6) matched(1,7) matched(6,8) matched(11,10) matched(10,11) matched(9,12) matched(12,9) matched(14,15) matched(18,16) matched(16,18) matched(13,19) matched(22,23) matched(24,25) matched(27,26) matched(26,27) matched(28,21) matched(29,32) matched(32,29) matched(35,34) matched(34,35) matched(38,36) matched(36,38) matched(5,3) matched(2,4) matched(17,20) matched(23,22) matched(21,28) matched(31,30) matched(40,37) matched(37,40) matched(4,2) matched(3,5) matched(39,33) matched(15,14) matched(20,17) matched(19,13) matched(30,31) matched(33,39) matched(7,1) matched(25,24)
Optimization: 408
Answer: 3
matched(8,6) matched(1,7) matched(6,8) matched(9,10) matched(12,11) matched(11,12) matched(10,9) matched(14,15) matched(18,16) matched(16,18) matched(13,19) matched(25,23) matched(23,25) matched(27,26) matched(26,27) matched(28,21) matched(29,32) matched(32,29) matched(35,34) matched(34,35) matched(38,36) matched(36,38) matched(5,3) matched(2,4) matched(17,20) matched(24,22) matched(21,28) matched(31,30) matched(40,37) matched(37,40) matched(4,2) matched(3,5) matched(39,33) matched(15,14) matched(20,17) matched(19,13) matched(30,31) matched(33,39) matched(7,1) matched(22,24)
Optimization: 406
Answer: 4
matched(2,6) matched(3,7) matched(1,8) matched(9,10) matched(12,11) matched(11,12) matched(10,9) matched(14,15) matched(18,16) matched(16,18) matched(13,19) matched(22,23) matched(28,25) matched(24,26) matched(21,27) matched(27,21) matched(31,32) matched(30,29) matched(35,34) matched(34,35) matched(38,36) matched(36,38) matched(7,3) matched(5,4) matched(17,20) matched(23,22) matched(25,28) matched(29,30) matched(40,37) matched(37,40) matched(6,2) matched(4,5) matched(39,33) matched(15,14) matched(20,17) matched(19,13) matched(32,31) matched(33,39) matched(8,1) matched(26,24)
Optimization: 399
Answer: 5
matched(2,6) matched(3,7) matched(1,8) matched(9,10) matched(12,11) matched(11,12) matched(10,9) matched(14,15) matched(18,16) matched(16,18) matched(13,19) matched(22,23) matched(28,25) matched(24,26) matched(21,27) matched(27,21) matched(29,32) matched(32,29) matched(35,34) matched(34,35) matched(38,36) matched(36,38) matched(7,3) matched(5,4) matched(17,20) matched(23,22) matched(25,28) matched(31,30) matched(40,37) matched(37,40) matched(6,2) matched(4,5) matched(39,33) matched(15,14) matched(20,17) matched(19,13) matched(30,31) matched(33,39) matched(8,1) matched(26,24)
Optimization: 395
Answer: 6
matched(8,6) matched(1,7) matched(6,8) matched(9,10) matched(12,11) matched(11,12) matched(10,9) matched(14,15) matched(18,16) matched(16,18) matched(13,19) matched(22,23) matched(28,25) matched(24,26) matched(21,27) matched(27,21) matched(29,32) matched(32,29) matched(35,34) matched(34,35) matched(38,36) matched(36,38) matched(5,3) matched(2,4) matched(17,20) matched(23,22) matched(25,28) matched(31,30) matched(40,37) matched(37,40) matched(4,2) matched(3,5) matched(39,33) matched(15,14) matched(20,17) matched(19,13) matched(30,31) matched(33,39) matched(7,1) matched(26,24)
Optimization: 394
Answer: 7
matched(7,6) matched(6,7) matched(1,8) matched(9,10) matched(12,11) matched(11,12) matched(10,9) matched(14,15) matched(18,16) matched(16,18) matched(13,19) matched(22,23) matched(28,25) matched(24,26) matched(21,27) matched(27,21) matched(29,32) matched(32,29) matched(35,34) matched(34,35) matched(38,36) matched(36,38) matched(5,3) matched(2,4) matched(17,20) matched(23,22) matched(25,28) matched(31,30) matched(40,37) matched(37,40) matched(4,2) matched(3,5) matched(39,33) matched(15,14) matched(20,17) matched(19,13) matched(30,31) matched(33,39) matched(8,1) matched(26,24)
Optimization: 393
OPTIMUM FOUND

Models       : 7
  Optimum    : yes
Optimization : 393
Calls        : 1
Time         : 0.540s (Solving: 0.10s 1st Model: 0.00s Unsat: 0.06s)
CPU Time     : 0.535s
